p cnf 21 52
1 2 3 0
-1 -2 0
-1 -3 0
-2 -3 0
4 5 6 0
-4 -5 0
-4 -6 0
-5 -6 0
7 8 9 0
-7 -8 0
-7 -9 0
-8 -9 0
1 4 7 0
-1 -4 0
-1 -7 0
-4 -7 0
2 5 8 0
-2 -5 0
-2 -8 0
-5 -8 0
3 6 9 0
-3 -6 0
-3 -9 0
-6 -9 0
-3 -4 10 0
-6 -7 10 0
-2 -4 11 0
-5 -7 11 0
-3 -5 12 0
-3 -5 -11 0
-6 -8 12 0
-6 -8 -11 0
-11 12 0
-1 -5 13 0
-4 -8 13 0
-2 -6 14 0
-2 -6 -13 0
-5 -9 14 0
-5 -9 -13 0
-13 14 0
-1 -6 15 0
-4 -9 15 0
-3 -7 16 0
-2 -7 17 0
-3 -8 18 0
-3 -8 -17 0
-17 18 0
-1 -8 19 0
-2 -9 20 0
-2 -9 -19 0
-19 20 0
-1 -9 21 0

